out/bwp_6_10_1_lp.out
7
0 0    0 0
3 0    3 0
0 1    0 1
0 2    0 2
0 3    0 3
1 0    2 1
1 2    2 3
3 1    5 3
0 4    2 6
3 4    5 6
